100
128
32
2
2
31
6
8
7
3
50
42
62
21
5
6
41
8
2
5
17
2
24
51
4
1
42
50
22
29
38
29
42
23
4
61
32
28
30
54
19
42
57
2
4
1
42
64
39
63
49
62
36
43
1
10
16
13
47
46
30
46
26
6
52
51
60
51
6
14
58
27
50
20
3
34
45
55
4
2
2
5
1
61
30
41
21
3
27
2
42
45
47
59
55
51
22
21
48
57
25
37